p cnf 430 1488
-191 140 0
-191 -182 0
-191 -4 0
-191 130 0
-191 -28 0
191 -140 182 4 -130 28 0
-192 82 0
-192 -158 0
-192 183 0
-192 30 0
-192 -23 0
192 -82 158 -183 -30 23 0
-193 145 0
-193 92 0
-193 60 0
-193 -150 0
-193 -29 0
193 -145 -92 -60 150 29 0
-194 -73 0
-194 143 0
-194 -86 0
-194 35 0
-194 -1 0
194 73 -143 86 -35 1 0
-195 -132 0
-195 127 0
-195 -180 0
-195 98 0
-195 22 0
195 132 -127 180 -98 -22 0
191 192 193 194 195 0
-196 -52 0
-196 -71 0
-196 104 0
-196 -26 0
-196 -40 0
196 52 71 -104 26 40 0
-197 -174 0
-197 163 0
-197 -71 0
-197 56 0
-197 73 0
197 174 -163 71 -56 -73 0
-198 -96 0
-198 102 0
-198 151 0
-198 -49 0
-198 -175 0
198 96 -102 -151 49 175 0
-199 -73 0
-199 -9 0
-199 -186 0
-199 102 0
-199 43 0
199 73 9 186 -102 -43 0
-200 -139 0
-200 -129 0
-200 -56 0
-200 -113 0
-200 -78 0
200 139 129 56 113 78 0
196 197 198 199 200 0
-201 97 0
-201 -83 0
-201 -14 0
-201 168 0
-201 44 0
201 -97 83 14 -168 -44 0
-202 -174 0
-202 73 0
-202 168 0
-202 -160 0
-202 126 0
202 174 -73 -168 160 -126 0
-203 -65 0
-203 166 0
-203 104 0
-203 -174 0
-203 -26 0
203 65 -166 -104 174 26 0
-204 -95 0
-204 53 0
-204 6 0
-204 -15 0
-204 -160 0
204 95 -53 -6 15 160 0
-205 -137 0
-205 -116 0
-205 -174 0
-205 10 0
-205 -19 0
205 137 116 174 -10 19 0
201 202 203 204 205 0
-206 162 0
-206 -90 0
-206 138 0
-206 -26 0
-206 -148 0
206 -162 90 -138 26 148 0
-207 -5 0
-207 -157 0
-207 161 0
-207 18 0
-207 -113 0
207 5 157 -161 -18 113 0
-208 -179 0
-208 50 0
-208 -99 0
-208 -172 0
-208 74 0
208 179 -50 99 172 -74 0
-209 45 0
-209 -27 0
-209 -176 0
-209 -9 0
-209 -147 0
209 -45 27 176 9 147 0
-210 -96 0
-210 -184 0
-210 154 0
-210 -117 0
-210 -169 0
210 96 184 -154 117 169 0
206 207 208 209 210 0
-211 -41 0
-211 120 0
-211 -128 0
-211 -67 0
-211 154 0
211 41 -120 128 67 -154 0
-212 184 0
-212 53 0
-212 -29 0
-212 -32 0
-212 -71 0
212 -184 -53 29 32 71 0
-213 -121 0
-213 159 0
-213 -36 0
-213 41 0
-213 -60 0
213 121 -159 36 -41 60 0
-214 54 0
-214 138 0
-214 -56 0
-214 59 0
-214 156 0
214 -54 -138 56 -59 -156 0
-215 -60 0
-215 118 0
-215 -134 0
-215 -91 0
-215 172 0
215 60 -118 134 91 -172 0
211 212 213 214 215 0
-216 -152 0
-216 -27 0
-216 -56 0
-216 -103 0
-216 102 0
216 152 27 56 103 -102 0
-217 126 0
-217 -121 0
-217 -175 0
-217 40 0
-217 111 0
217 -126 121 175 -40 -111 0
-218 -100 0
-218 166 0
-218 -115 0
-218 -37 0
-218 128 0
218 100 -166 115 37 -128 0
-219 -159 0
-219 -34 0
-219 -115 0
-219 36 0
-219 54 0
219 159 34 115 -36 -54 0
-220 32 0
-220 -72 0
-220 87 0
-220 -96 0
-220 70 0
220 -32 72 -87 96 -70 0
216 217 218 219 220 0
-221 -165 0
-221 -101 0
-221 92 0
-221 12 0
-221 -59 0
221 165 101 -92 -12 59 0
-222 147 0
-222 136 0
-222 -58 0
-222 26 0
-222 138 0
222 -147 -136 58 -26 -138 0
-223 -18 0
-223 -162 0
-223 -26 0
-223 -154 0
-223 -136 0
223 18 162 26 154 136 0
-224 96 0
-224 -185 0
-224 2 0
-224 -158 0
-224 136 0
224 -96 185 -2 158 -136 0
-225 -141 0
-225 131 0
-225 37 0
-225 149 0
-225 57 0
225 141 -131 -37 -149 -57 0
221 222 223 224 225 0
-226 -114 0
-226 28 0
-226 -30 0
-226 86 0
-226 68 0
226 114 -28 30 -86 -68 0
-227 -30 0
-227 28 0
-227 -107 0
-227 -7 0
-227 164 0
227 30 -28 107 7 -164 0
-228 129 0
-228 101 0
-228 169 0
-228 -154 0
-228 -41 0
228 -129 -101 -169 154 41 0
-229 -98 0
-229 -22 0
-229 163 0
-229 185 0
-229 86 0
229 98 22 -163 -185 -86 0
-230 -136 0
-230 -35 0
-230 27 0
-230 52 0
-230 170 0
230 136 35 -27 -52 -170 0
226 227 228 229 230 0
-231 -123 0
-231 113 0
-231 -85 0
-231 -59 0
-231 -23 0
231 123 -113 85 59 23 0
-232 -88 0
-232 -30 0
-232 64 0
-232 -150 0
-232 81 0
232 88 30 -64 150 -81 0
-233 82 0
-233 -83 0
-233 91 0
-233 -98 0
-233 -62 0
233 -82 83 -91 98 62 0
-234 10 0
-234 -146 0
-234 190 0
-234 -160 0
-234 107 0
234 -10 146 -190 160 -107 0
-235 -95 0
-235 -74 0
-235 85 0
-235 -96 0
-235 102 0
235 95 74 -85 96 -102 0
231 232 233 234 235 0
-236 -150 0
-236 188 0
-236 106 0
-236 -120 0
-236 -87 0
236 150 -188 -106 120 87 0
-237 79 0
-237 45 0
-237 138 0
-237 -97 0
-237 -60 0
237 -79 -45 -138 97 60 0
-238 -62 0
-238 128 0
-238 94 0
-238 -88 0
-238 54 0
238 62 -128 -94 88 -54 0
-239 -51 0
-239 -46 0
-239 -119 0
-239 125 0
-239 152 0
239 51 46 119 -125 -152 0
-240 19 0
-240 -108 0
-240 -2 0
-240 103 0
-240 23 0
240 -19 108 2 -103 -23 0
236 237 238 239 240 0
-241 176 0
-241 -88 0
-241 -90 0
-241 81 0
-241 -49 0
241 -176 88 90 -81 49 0
-242 86 0
-242 69 0
-242 56 0
-242 -53 0
-242 -35 0
242 -86 -69 -56 53 35 0
-243 119 0
-243 111 0
-243 109 0
-243 -184 0
-243 101 0
243 -119 -111 -109 184 -101 0
-244 -63 0
-244 -187 0
-244 -132 0
-244 -21 0
-244 156 0
244 63 187 132 21 -156 0
-245 126 0
-245 -65 0
-245 185 0
-245 -90 0
-245 -114 0
245 -126 65 -185 90 114 0
241 242 243 244 245 0
-246 124 0
-246 97 0
-246 96 0
-246 60 0
-246 -143 0
246 -124 -97 -96 -60 143 0
-247 -67 0
-247 -154 0
-247 39 0
-247 18 0
-247 103 0
247 67 154 -39 -18 -103 0
-248 -73 0
-248 188 0
-248 85 0
-248 167 0
-248 80 0
248 73 -188 -85 -167 -80 0
-249 -171 0
-249 131 0
-249 50 0
-249 -185 0
-249 -15 0
249 171 -131 -50 185 15 0
-250 -72 0
-250 -150 0
-250 -89 0
-250 116 0
-250 169 0
250 72 150 89 -116 -169 0
246 247 248 249 250 0
-251 102 0
-251 75 0
-251 71 0
-251 -181 0
-251 72 0
251 -102 -75 -71 181 -72 0
-252 -156 0
-252 83 0
-252 134 0
-252 -77 0
-252 57 0
252 156 -83 -134 77 -57 0
-253 130 0
-253 -113 0
-253 176 0
-253 -99 0
-253 141 0
253 -130 113 -176 99 -141 0
-254 42 0
-254 182 0
-254 -143 0
-254 -104 0
-254 -157 0
254 -42 -182 143 104 157 0
-255 47 0
-255 -111 0
-255 140 0
-255 71 0
-255 172 0
255 -47 111 -140 -71 -172 0
251 252 253 254 255 0
-256 178 0
-256 -146 0
-256 130 0
-256 138 0
-256 124 0
256 -178 146 -130 -138 -124 0
-257 23 0
-257 -56 0
-257 139 0
-257 -17 0
-257 -43 0
257 -23 56 -139 17 43 0
-258 81 0
-258 163 0
-258 73 0
-258 53 0
-258 -21 0
258 -81 -163 -73 -53 21 0
-259 74 0
-259 -64 0
-259 -36 0
-259 111 0
-259 165 0
259 -74 64 36 -111 -165 0
-260 -81 0
-260 72 0
-260 132 0
-260 -76 0
-260 163 0
260 81 -72 -132 76 -163 0
256 257 258 259 260 0
-261 -60 0
-261 146 0
-261 -13 0
-261 -49 0
-261 64 0
261 60 -146 13 49 -64 0
-262 187 0
-262 96 0
-262 -46 0
-262 -83 0
-262 -160 0
262 -187 -96 46 83 160 0
-263 169 0
-263 -5 0
-263 -167 0
-263 -101 0
-263 156 0
263 -169 5 167 101 -156 0
-264 -41 0
-264 -25 0
-264 91 0
-264 -164 0
-264 -121 0
264 41 25 -91 164 121 0
-265 -159 0
-265 -47 0
-265 65 0
-265 86 0
-265 -75 0
265 159 47 -65 -86 75 0
261 262 263 264 265 0
-266 -185 0
-266 -21 0
-266 -166 0
-266 -10 0
-266 -152 0
266 185 21 166 10 152 0
-267 -37 0
-267 73 0
-267 -56 0
-267 143 0
-267 -49 0
267 37 -73 56 -143 49 0
-268 -160 0
-268 -68 0
-268 -6 0
-268 186 0
-268 136 0
268 160 68 6 -186 -136 0
-269 -148 0
-269 -93 0
-269 10 0
-269 97 0
-269 -123 0
269 148 93 -10 -97 123 0
-270 -93 0
-270 12 0
-270 39 0
-270 45 0
-270 108 0
270 93 -12 -39 -45 -108 0
266 267 268 269 270 0
-271 154 0
-271 16 0
-271 -34 0
-271 -170 0
-271 -46 0
271 -154 -16 34 170 46 0
-272 -39 0
-272 -118 0
-272 135 0
-272 49 0
-272 -190 0
272 39 118 -135 -49 190 0
-273 -141 0
-273 142 0
-273 139 0
-273 104 0
-273 10 0
273 141 -142 -139 -104 -10 0
-274 -19 0
-274 6 0
-274 141 0
-274 -20 0
-274 158 0
274 19 -6 -141 20 -158 0
-275 -12 0
-275 187 0
-275 -93 0
-275 127 0
-275 67 0
275 12 -187 93 -127 -67 0
271 272 273 274 275 0
-276 173 0
-276 -161 0
-276 20 0
-276 29 0
-276 -81 0
276 -173 161 -20 -29 81 0
-277 129 0
-277 183 0
-277 39 0
-277 56 0
-277 172 0
277 -129 -183 -39 -56 -172 0
-278 -142 0
-278 -120 0
-278 105 0
-278 93 0
-278 -38 0
278 142 120 -105 -93 38 0
-279 79 0
-279 -133 0
-279 183 0
-279 -150 0
-279 -179 0
279 -79 133 -183 150 179 0
-280 -32 0
-280 176 0
-280 28 0
-280 118 0
-280 -59 0
280 32 -176 -28 -118 59 0
276 277 278 279 280 0
-281 129 0
-281 87 0
-281 177 0
-281 -155 0
-281 184 0
281 -129 -87 -177 155 -184 0
-282 -14 0
-282 -50 0
-282 -123 0
-282 186 0
-282 -96 0
282 14 50 123 -186 96 0
-283 154 0
-283 -171 0
-283 -23 0
-283 44 0
-283 -2 0
283 -154 171 23 -44 2 0
-284 -87 0
-284 -181 0
-284 69 0
-284 151 0
-284 -127 0
284 87 181 -69 -151 127 0
-285 111 0
-285 153 0
-285 32 0
-285 -25 0
-285 -114 0
285 -111 -153 -32 25 114 0
281 282 283 284 285 0
-286 -170 0
-286 -138 0
-286 96 0
-286 74 0
-286 -156 0
286 170 138 -96 -74 156 0
-287 -85 0
-287 -22 0
-287 -124 0
-287 160 0
-287 -122 0
287 85 22 124 -160 122 0
-288 -141 0
-288 -43 0
-288 -102 0
-288 -184 0
-288 -96 0
288 141 43 102 184 96 0
-289 8 0
-289 -105 0
-289 -174 0
-289 19 0
-289 -184 0
289 -8 105 174 -19 184 0
-290 -57 0
-290 182 0
-290 -65 0
-290 -13 0
-290 42 0
290 57 -182 65 13 -42 0
286 287 288 289 290 0
-291 34 0
-291 -80 0
-291 187 0
-291 94 0
-291 175 0
291 -34 80 -187 -94 -175 0
-292 -150 0
-292 92 0
-292 -84 0
-292 -189 0
-292 136 0
292 150 -92 84 189 -136 0
-293 36 0
-293 -83 0
-293 143 0
-293 -147 0
-293 99 0
293 -36 83 -143 147 -99 0
-294 161 0
-294 81 0
-294 166 0
-294 -83 0
-294 -102 0
294 -161 -81 -166 83 102 0
-295 155 0
-295 71 0
-295 132 0
-295 -152 0
-295 -55 0
295 -155 -71 -132 152 55 0
291 292 293 294 295 0
-296 162 0
-296 170 0
-296 -53 0
-296 52 0
-296 136 0
296 -162 -170 53 -52 -136 0
-297 -179 0
-297 -93 0
-297 137 0
-297 -175 0
-297 89 0
297 179 93 -137 175 -89 0
-298 -123 0
-298 -152 0
-298 13 0
-298 20 0
-298 -138 0
298 123 152 -13 -20 138 0
-299 -78 0
-299 -45 0
-299 -30 0
-299 149 0
-299 -125 0
299 78 45 30 -149 125 0
-300 -110 0
-300 17 0
-300 -29 0
-300 -72 0
-300 44 0
300 110 -17 29 72 -44 0
296 297 298 299 300 0
-301 -115 0
-301 172 0
-301 3 0
-301 120 0
-301 47 0
301 115 -172 -3 -120 -47 0
-302 -25 0
-302 70 0
-302 -184 0
-302 -4 0
-302 -87 0
302 25 -70 184 4 87 0
-303 63 0
-303 -145 0
-303 173 0
-303 -64 0
-303 -147 0
303 -63 145 -173 64 147 0
-304 64 0
-304 -105 0
-304 -38 0
-304 58 0
-304 74 0
304 -64 105 38 -58 -74 0
-305 -154 0
-305 99 0
-305 -166 0
-305 -141 0
-305 -10 0
305 154 -99 166 141 10 0
301 302 303 304 305 0
-306 -26 0
-306 93 0
-306 137 0
-306 -146 0
-306 177 0
306 26 -93 -137 146 -177 0
-307 -20 0
-307 -187 0
-307 -35 0
-307 -127 0
-307 -5 0
307 20 187 35 127 5 0
-308 -67 0
-308 90 0
-308 130 0
-308 98 0
-308 188 0
308 67 -90 -130 -98 -188 0
-309 145 0
-309 -158 0
-309 99 0
-309 -140 0
-309 157 0
309 -145 158 -99 140 -157 0
-310 186 0
-310 -133 0
-310 -96 0
-310 -179 0
-310 58 0
310 -186 133 96 179 -58 0
306 307 308 309 310 0
-311 115 0
-311 168 0
-311 -3 0
-311 -113 0
-311 -47 0
311 -115 -168 3 113 47 0
-312 -163 0
-312 53 0
-312 -123 0
-312 22 0
-312 -89 0
312 163 -53 123 -22 89 0
-313 39 0
-313 30 0
-313 -13 0
-313 166 0
-313 -60 0
313 -39 -30 13 -166 60 0
-314 90 0
-314 -45 0
-314 164 0
-314 -136 0
-314 69 0
314 -90 45 -164 136 -69 0
-315 11 0
-315 4 0
-315 -132 0
-315 -97 0
-315 -67 0
315 -11 -4 132 97 67 0
311 312 313 314 315 0
-316 134 0
-316 28 0
-316 46 0
-316 24 0
-316 70 0
316 -134 -28 -46 -24 -70 0
-317 113 0
-317 -189 0
-317 -75 0
-317 6 0
-317 -161 0
317 -113 189 75 -6 161 0
-318 -189 0
-318 107 0
-318 -124 0
-318 -71 0
-318 68 0
318 189 -107 124 71 -68 0
-319 8 0
-319 -137 0
-319 178 0
-319 19 0
-319 143 0
319 -8 137 -178 -19 -143 0
-320 37 0
-320 -143 0
-320 12 0
-320 41 0
-320 -98 0
320 -37 143 -12 -41 98 0
316 317 318 319 320 0
-321 -7 0
-321 152 0
-321 -32 0
-321 166 0
-321 -15 0
321 7 -152 32 -166 15 0
-322 56 0
-322 -29 0
-322 28 0
-322 75 0
-322 -13 0
322 -56 29 -28 -75 13 0
-323 184 0
-323 160 0
-323 79 0
-323 155 0
-323 70 0
323 -184 -160 -79 -155 -70 0
-324 189 0
-324 -45 0
-324 72 0
-324 94 0
-324 97 0
324 -189 45 -72 -94 -97 0
-325 113 0
-325 -5 0
-325 -41 0
-325 -47 0
-325 -98 0
325 -113 5 41 47 98 0
321 322 323 324 325 0
-326 44 0
-326 -91 0
-326 118 0
-326 -13 0
-326 33 0
326 -44 91 -118 13 -33 0
-327 -24 0
-327 -102 0
-327 -46 0
-327 188 0
-327 147 0
327 24 102 46 -188 -147 0
-328 -183 0
-328 -95 0
-328 80 0
-328 12 0
-328 119 0
328 183 95 -80 -12 -119 0
-329 10 0
-329 -49 0
-329 -169 0
-329 85 0
-329 97 0
329 -10 49 169 -85 -97 0
-330 -187 0
-330 128 0
-330 -161 0
-330 83 0
-330 -111 0
330 187 -128 161 -83 111 0
326 327 328 329 330 0
-331 129 0
-331 -26 0
-331 -29 0
-331 -14 0
-331 -107 0
331 -129 26 29 14 107 0
-332 -135 0
-332 172 0
-332 79 0
-332 76 0
-332 20 0
332 135 -172 -79 -76 -20 0
-333 -68 0
-333 115 0
-333 -118 0
-333 -23 0
-333 -1 0
333 68 -115 118 23 1 0
-334 183 0
-334 11 0
-334 -55 0
-334 62 0
-334 -1 0
334 -183 -11 55 -62 1 0
-335 162 0
-335 49 0
-335 80 0
-335 -188 0
-335 -27 0
335 -162 -49 -80 188 27 0
331 332 333 334 335 0
-336 154 0
-336 -42 0
-336 93 0
-336 -49 0
-336 -79 0
336 -154 42 -93 49 79 0
-337 -17 0
-337 -114 0
-337 -187 0
-337 75 0
-337 19 0
337 17 114 187 -75 -19 0
-338 -155 0
-338 -178 0
-338 29 0
-338 115 0
-338 142 0
338 155 178 -29 -115 -142 0
-339 -56 0
-339 137 0
-339 -168 0
-339 27 0
-339 154 0
339 56 -137 168 -27 -154 0
-340 25 0
-340 132 0
-340 110 0
-340 -138 0
-340 -4 0
340 -25 -132 -110 138 4 0
336 337 338 339 340 0
-341 -6 0
-341 29 0
-341 172 0
-341 70 0
-341 -68 0
341 6 -29 -172 -70 68 0
-342 -183 0
-342 88 0
-342 -130 0
-342 144 0
-342 22 0
342 183 -88 130 -144 -22 0
-343 35 0
-343 -93 0
-343 85 0
-343 -46 0
-343 -124 0
343 -35 93 -85 46 124 0
-344 35 0
-344 -1 0
-344 -183 0
-344 124 0
-344 -11 0
344 -35 1 183 -124 11 0
-345 -176 0
-345 -88 0
-345 -157 0
-345 1 0
-345 122 0
345 176 88 157 -1 -122 0
341 342 343 344 345 0
-346 -175 0
-346 -32 0
-346 -116 0
-346 -179 0
-346 168 0
346 175 32 116 179 -168 0
-347 -68 0
-347 121 0
-347 -53 0
-347 -124 0
-347 66 0
347 68 -121 53 124 -66 0
-348 -164 0
-348 -181 0
-348 -116 0
-348 182 0
-348 -174 0
348 164 181 116 -182 174 0
-349 79 0
-349 88 0
-349 77 0
-349 -107 0
-349 -31 0
349 -79 -88 -77 107 31 0
-350 -38 0
-350 -166 0
-350 52 0
-350 -55 0
-350 -106 0
350 38 166 -52 55 106 0
346 347 348 349 350 0
-351 38 0
-351 -172 0
-351 -157 0
-351 -85 0
-351 112 0
351 -38 172 157 85 -112 0
-352 113 0
-352 -13 0
-352 -63 0
-352 112 0
-352 110 0
352 -113 13 63 -112 -110 0
-353 174 0
-353 53 0
-353 12 0
-353 -68 0
-353 -140 0
353 -174 -53 -12 68 140 0
-354 35 0
-354 -112 0
-354 -70 0
-354 87 0
-354 31 0
354 -35 112 70 -87 -31 0
-355 -165 0
-355 -152 0
-355 -190 0
-355 -109 0
-355 149 0
355 165 152 190 109 -149 0
351 352 353 354 355 0
-356 -138 0
-356 -143 0
-356 -170 0
-356 16 0
-356 -86 0
356 138 143 170 -16 86 0
-357 144 0
-357 -74 0
-357 -92 0
-357 -86 0
-357 99 0
357 -144 74 92 86 -99 0
-358 165 0
-358 119 0
-358 -139 0
-358 153 0
-358 18 0
358 -165 -119 139 -153 -18 0
-359 -104 0
-359 -41 0
-359 -14 0
-359 42 0
-359 -12 0
359 104 41 14 -42 12 0
-360 113 0
-360 184 0
-360 56 0
-360 30 0
-360 -144 0
360 -113 -184 -56 -30 144 0
356 357 358 359 360 0
-361 -111 0
-361 16 0
-361 140 0
-361 151 0
-361 -137 0
361 111 -16 -140 -151 137 0
-362 -132 0
-362 15 0
-362 -125 0
-362 102 0
-362 74 0
362 132 -15 125 -102 -74 0
-363 146 0
-363 -37 0
-363 18 0
-363 -121 0
-363 155 0
363 -146 37 -18 121 -155 0
-364 -9 0
-364 103 0
-364 86 0
-364 56 0
-364 136 0
364 9 -103 -86 -56 -136 0
-365 35 0
-365 -74 0
-365 52 0
-365 -190 0
-365 51 0
365 -35 74 -52 190 -51 0
361 362 363 364 365 0
-366 18 0
-366 26 0
-366 133 0
-366 -91 0
-366 -63 0
366 -18 -26 -133 91 63 0
-367 80 0
-367 -108 0
-367 135 0
-367 73 0
-367 -93 0
367 -80 108 -135 -73 93 0
-368 115 0
-368 84 0
-368 -99 0
-368 146 0
-368 68 0
368 -115 -84 99 -146 -68 0
-369 81 0
-369 170 0
-369 18 0
-369 92 0
-369 35 0
369 -81 -170 -18 -92 -35 0
-370 3 0
-370 -79 0
-370 123 0
-370 -6 0
-370 65 0
370 -3 79 -123 6 -65 0
366 367 368 369 370 0
-371 -75 0
-371 33 0
-371 144 0
-371 -149 0
-371 -152 0
371 75 -33 -144 149 152 0
-372 -113 0
-372 55 0
-372 28 0
-372 -178 0
-372 -98 0
372 113 -55 -28 178 98 0
-373 -67 0
-373 -141 0
-373 -139 0
-373 -69 0
-373 92 0
373 67 141 139 69 -92 0
-374 -167 0
-374 -148 0
-374 -124 0
-374 -54 0
-374 74 0
374 167 148 124 54 -74 0
-375 -50 0
-375 144 0
-375 113 0
-375 -188 0
-375 74 0
375 50 -144 -113 188 -74 0
371 372 373 374 375 0
-376 -35 0
-376 -158 0
-376 132 0
-376 -25 0
-376 -177 0
376 35 158 -132 25 177 0
-377 117 0
-377 -14 0
-377 170 0
-377 37 0
-377 -92 0
377 -117 14 -170 -37 92 0
-378 -93 0
-378 -67 0
-378 -44 0
-378 25 0
-378 -125 0
378 93 67 44 -25 125 0
-379 -38 0
-379 88 0
-379 -99 0
-379 118 0
-379 169 0
379 38 -88 99 -118 -169 0
-380 157 0
-380 -50 0
-380 28 0
-380 160 0
-380 189 0
380 -157 50 -28 -160 -189 0
376 377 378 379 380 0
-381 123 0
-381 -44 0
-381 -1 0
-381 152 0
-381 10 0
381 -123 44 1 -152 -10 0
-382 65 0
-382 4 0
-382 44 0
-382 163 0
-382 -27 0
382 -65 -4 -44 -163 27 0
-383 36 0
-383 -5 0
-383 86 0
-383 -67 0
-383 63 0
383 -36 5 -86 67 -63 0
-384 172 0
-384 -102 0
-384 -114 0
-384 -8 0
-384 -76 0
384 -172 102 114 8 76 0
-385 -139 0
-385 21 0
-385 -145 0
-385 -169 0
-385 33 0
385 139 -21 145 169 -33 0
381 382 383 384 385 0
-386 66 0
-386 -100 0
-386 168 0
-386 -78 0
-386 25 0
386 -66 100 -168 78 -25 0
-387 -19 0
-387 72 0
-387 -16 0
-387 -78 0
-387 172 0
387 19 -72 16 78 -172 0
-388 148 0
-388 -99 0
-388 127 0
-388 -133 0
-388 38 0
388 -148 99 -127 133 -38 0
-389 -18 0
-389 161 0
-389 131 0
-389 -157 0
-389 58 0
389 18 -161 -131 157 -58 0
-390 19 0
-390 125 0
-390 -58 0
-390 -55 0
-390 -15 0
390 -19 -125 58 55 15 0
386 387 388 389 390 0
-391 -28 0
-391 75 0
-391 35 0
-391 113 0
-391 17 0
391 28 -75 -35 -113 -17 0
-392 -59 0
-392 161 0
-392 183 0
-392 -65 0
-392 10 0
392 59 -161 -183 65 -10 0
-393 -101 0
-393 56 0
-393 -43 0
-393 9 0
-393 -102 0
393 101 -56 43 -9 102 0
-394 -98 0
-394 34 0
-394 -24 0
-394 146 0
-394 156 0
394 98 -34 24 -146 -156 0
-395 106 0
-395 -130 0
-395 -29 0
-395 177 0
-395 16 0
395 -106 130 29 -177 -16 0
391 392 393 394 395 0
-396 138 0
-396 -154 0
-396 -28 0
-396 -135 0
-396 -132 0
396 -138 154 28 135 132 0
-397 9 0
-397 83 0
-397 80 0
-397 126 0
-397 112 0
397 -9 -83 -80 -126 -112 0
-398 -138 0
-398 87 0
-398 -85 0
-398 129 0
-398 -104 0
398 138 -87 85 -129 104 0
-399 166 0
-399 96 0
-399 143 0
-399 -165 0
-399 127 0
399 -166 -96 -143 165 -127 0
-400 124 0
-400 -109 0
-400 35 0
-400 -44 0
-400 -27 0
400 -124 109 -35 44 27 0
396 397 398 399 400 0
-401 -136 0
-401 -74 0
-401 105 0
-401 -52 0
-401 86 0
401 136 74 -105 52 -86 0
-402 -164 0
-402 20 0
-402 17 0
-402 150 0
-402 77 0
402 164 -20 -17 -150 -77 0
-403 -62 0
-403 104 0
-403 -54 0
-403 18 0
-403 113 0
403 62 -104 54 -18 -113 0
-404 89 0
-404 1 0
-404 -82 0
-404 -55 0
-404 -94 0
404 -89 -1 82 55 94 0
-405 19 0
-405 170 0
-405 118 0
-405 116 0
-405 74 0
405 -19 -170 -118 -116 -74 0
401 402 403 404 405 0
-406 158 0
-406 97 0
-406 -146 0
-406 -123 0
-406 162 0
406 -158 -97 146 123 -162 0
-407 3 0
-407 4 0
-407 117 0
-407 114 0
-407 -161 0
407 -3 -4 -117 -114 161 0
-408 66 0
-408 81 0
-408 -6 0
-408 183 0
-408 -135 0
408 -66 -81 6 -183 135 0
-409 -142 0
-409 -52 0
-409 -48 0
-409 -19 0
-409 -158 0
409 142 52 48 19 158 0
-410 61 0
-410 -67 0
-410 100 0
-410 127 0
-410 -156 0
410 -61 67 -100 -127 156 0
406 407 408 409 410 0
-411 73 0
-411 51 0
-411 138 0
-411 25 0
-411 94 0
411 -73 -51 -138 -25 -94 0
-412 -67 0
-412 8 0
-412 5 0
-412 -148 0
-412 53 0
412 67 -8 -5 148 -53 0
-413 129 0
-413 109 0
-413 180 0
-413 141 0
-413 -46 0
413 -129 -109 -180 -141 46 0
-414 132 0
-414 14 0
-414 32 0
-414 140 0
-414 153 0
414 -132 -14 -32 -140 -153 0
-415 -147 0
-415 -74 0
-415 -54 0
-415 93 0
-415 -141 0
415 147 74 54 -93 141 0
411 412 413 414 415 0
-416 131 0
-416 -110 0
-416 22 0
-416 -96 0
-416 -154 0
416 -131 110 -22 96 154 0
-417 187 0
-417 64 0
-417 23 0
-417 48 0
-417 -112 0
417 -187 -64 -23 -48 112 0
-418 -56 0
-418 52 0
-418 82 0
-418 62 0
-418 106 0
418 56 -52 -82 -62 -106 0
-419 46 0
-419 77 0
-419 98 0
-419 17 0
-419 -36 0
419 -46 -77 -98 -17 36 0
-420 -36 0
-420 -107 0
-420 -56 0
-420 -181 0
-420 -178 0
420 36 107 56 181 178 0
416 417 418 419 420 0
-421 141 0
-421 116 0
-421 56 0
-421 104 0
-421 -106 0
421 -141 -116 -56 -104 106 0
-422 -176 0
-422 -180 0
-422 61 0
-422 -20 0
-422 110 0
422 176 180 -61 20 -110 0
-423 -66 0
-423 -68 0
-423 159 0
-423 -173 0
-423 110 0
423 66 68 -159 173 -110 0
-424 -169 0
-424 -59 0
-424 58 0
-424 -176 0
-424 26 0
424 169 59 -58 176 -26 0
-425 -40 0
-425 119 0
-425 -41 0
-425 12 0
-425 -74 0
425 40 -119 41 -12 74 0
421 422 423 424 425 0
-426 -2 0
-426 -83 0
-426 106 0
-426 -78 0
-426 59 0
426 2 83 -106 78 -59 0
-427 -92 0
-427 -125 0
-427 170 0
-427 98 0
-427 -172 0
427 92 125 -170 -98 172 0
-428 -148 0
-428 -52 0
-428 24 0
-428 -115 0
-428 -41 0
428 148 52 -24 115 41 0
-429 -94 0
-429 16 0
-429 22 0
-429 -165 0
-429 149 0
429 94 -16 -22 165 -149 0
-430 -145 0
-430 -28 0
-430 -155 0
-430 -163 0
-430 27 0
430 145 28 155 163 -27 0
426 427 428 429 430 0
